(declare-fun var0 () String)
(assert (RegexIn var0 (RegexConcat (RegexPlus (RegexStar (Str2Reg "eee"))) (RegexConcat (RegexPlus (RegexStar (Str2Reg "d"))) (RegexConcat (RegexStar (RegexStar (Str2Reg "cc"))) (RegexConcat (RegexStar (RegexStar (Str2Reg "b"))) (RegexConcat (RegexStar (RegexStar (Str2Reg "aaa"))) (RegexConcat (RegexPlus (RegexPlus (Str2Reg "9"))) (RegexConcat (RegexStar (RegexStar (Str2Reg "88"))) (RegexConcat (RegexUnion (RegexPlus (Str2Reg "5")) (RegexUnion (Str2Reg "6") (Str2Reg "7"))) (RegexConcat (RegexPlus (RegexStar (Str2Reg "444"))) (RegexUnion (RegexUnion (Str2Reg "00") (Str2Reg "1")) (RegexUnion (Str2Reg "222") (Str2Reg "333"))))))))))))))
(assert (RegexIn var0 (RegexConcat (RegexUnion (RegexUnion (Str2Reg "c") (Str2Reg "dd")) (RegexStar (Str2Reg "ee"))) (RegexConcat (RegexUnion (RegexPlus (Str2Reg "aaa")) (RegexStar (Str2Reg "bb"))) (RegexConcat (RegexPlus (RegexStar (Str2Reg "99"))) (RegexConcat (RegexStar (RegexUnion (Str2Reg "777") (Str2Reg "8"))) (RegexConcat (RegexPlus (RegexPlus (Str2Reg "66"))) (RegexConcat (RegexUnion (RegexStar (Str2Reg "444")) (RegexPlus (Str2Reg "55"))) (RegexConcat (RegexPlus (RegexPlus (Str2Reg "33"))) (RegexConcat (RegexStar (RegexPlus (Str2Reg "222"))) (RegexConcat (RegexPlus (RegexPlus (Str2Reg "1"))) (RegexStar (RegexStar (Str2Reg "00"))))))))))))))
(assert (RegexIn var0 (RegexConcat (RegexUnion (RegexPlus (Str2Reg "jjj")) (RegexUnion (Str2Reg "k") (Str2Reg "l"))) (RegexConcat (RegexStar (RegexPlus (Str2Reg "iii"))) (RegexConcat (RegexUnion (RegexStar (Str2Reg "fff")) (RegexUnion (Str2Reg "ggg") (Str2Reg "hh"))) (RegexConcat (RegexStar (RegexUnion (Str2Reg "ddd") (Str2Reg "e"))) (RegexConcat (RegexStar (RegexStar (Str2Reg "c"))) (RegexConcat (RegexPlus (RegexUnion (Str2Reg "a") (Str2Reg "bb"))) (RegexConcat (RegexUnion (RegexPlus (Str2Reg "88")) (RegexStar (Str2Reg "999"))) (RegexConcat (RegexUnion (RegexStar (Str2Reg "66")) (RegexPlus (Str2Reg "7"))) (RegexConcat (RegexUnion (RegexPlus (Str2Reg "333")) (RegexUnion (Str2Reg "444") (Str2Reg "55"))) (RegexUnion (RegexUnion (Str2Reg "000") (Str2Reg "1")) (RegexPlus (Str2Reg "22"))))))))))))))
(assert (RegexIn var0 (RegexConcat (RegexStar (RegexPlus (Str2Reg "j"))) (RegexConcat (RegexUnion (RegexPlus (Str2Reg "h")) (RegexStar (Str2Reg "ii"))) (RegexConcat (RegexUnion (RegexUnion (Str2Reg "ee") (Str2Reg "f")) (RegexStar (Str2Reg "g"))) (RegexConcat (RegexStar (RegexPlus (Str2Reg "d"))) (RegexConcat (RegexUnion (RegexPlus (Str2Reg "aa")) (RegexUnion (Str2Reg "bbb") (Str2Reg "c"))) (RegexConcat (RegexPlus (RegexUnion (Str2Reg "8") (Str2Reg "99"))) (RegexConcat (RegexStar (RegexUnion (Str2Reg "6") (Str2Reg "7"))) (RegexConcat (RegexUnion (RegexPlus (Str2Reg "444")) (RegexStar (Str2Reg "555"))) (RegexConcat (RegexStar (RegexPlus (Str2Reg "33"))) (RegexUnion (RegexPlus (Str2Reg "00")) (RegexUnion (Str2Reg "111") (Str2Reg "22"))))))))))))))
(assert (RegexIn var0 (RegexConcat (RegexUnion (RegexUnion (Str2Reg "gg") (Str2Reg "hh")) (RegexStar (Str2Reg "ii"))) (RegexConcat (RegexPlus (RegexStar (Str2Reg "f"))) (RegexConcat (RegexUnion (RegexUnion (Str2Reg "ccc") (Str2Reg "dd")) (RegexStar (Str2Reg "ee"))) (RegexConcat (RegexPlus (RegexUnion (Str2Reg "a") (Str2Reg "bbb"))) (RegexConcat (RegexStar (RegexUnion (Str2Reg "88") (Str2Reg "999"))) (RegexConcat (RegexUnion (RegexStar (Str2Reg "5")) (RegexUnion (Str2Reg "66") (Str2Reg "7"))) (RegexConcat (RegexPlus (RegexPlus (Str2Reg "44"))) (RegexConcat (RegexUnion (RegexStar (Str2Reg "222")) (RegexStar (Str2Reg "3"))) (RegexConcat (RegexPlus (RegexStar (Str2Reg "111"))) (RegexPlus (RegexPlus (Str2Reg "00"))))))))))))))
(assert (RegexIn var0 (RegexConcat (RegexPlus (RegexPlus (Str2Reg "ff"))) (RegexConcat (RegexPlus (RegexStar (Str2Reg "e"))) (RegexConcat (RegexUnion (RegexUnion (Str2Reg "bbb") (Str2Reg "ccc")) (RegexStar (Str2Reg "dd"))) (RegexConcat (RegexUnion (RegexUnion (Str2Reg "888") (Str2Reg "99")) (RegexStar (Str2Reg "aaa"))) (RegexConcat (RegexPlus (RegexStar (Str2Reg "7"))) (RegexConcat (RegexUnion (RegexPlus (Str2Reg "5")) (RegexStar (Str2Reg "666"))) (RegexConcat (RegexStar (RegexStar (Str2Reg "44"))) (RegexConcat (RegexStar (RegexStar (Str2Reg "33"))) (RegexConcat (RegexPlus (RegexStar (Str2Reg "22"))) (RegexPlus (RegexUnion (Str2Reg "000") (Str2Reg "11"))))))))))))))
(assert (RegexIn var0 (RegexConcat (RegexPlus (RegexUnion (Str2Reg "fff") (Str2Reg "ggg"))) (RegexConcat (RegexPlus (RegexUnion (Str2Reg "d") (Str2Reg "ee"))) (RegexConcat (RegexUnion (RegexPlus (Str2Reg "bb")) (RegexStar (Str2Reg "ccc"))) (RegexConcat (RegexUnion (RegexPlus (Str2Reg "8")) (RegexUnion (Str2Reg "999") (Str2Reg "aa"))) (RegexConcat (RegexStar (RegexStar (Str2Reg "7"))) (RegexConcat (RegexPlus (RegexStar (Str2Reg "666"))) (RegexConcat (RegexStar (RegexStar (Str2Reg "55"))) (RegexConcat (RegexStar (RegexStar (Str2Reg "44"))) (RegexConcat (RegexUnion (RegexStar (Str2Reg "2")) (RegexPlus (Str2Reg "33"))) (RegexStar (RegexUnion (Str2Reg "0") (Str2Reg "111"))))))))))))))
(assert (RegexIn var0 (RegexConcat (RegexStar (RegexStar (Str2Reg "hh"))) (RegexConcat (RegexStar (RegexPlus (Str2Reg "g"))) (RegexConcat (RegexUnion (RegexUnion (Str2Reg "dd") (Str2Reg "eee")) (RegexStar (Str2Reg "fff"))) (RegexConcat (RegexStar (RegexPlus (Str2Reg "c"))) (RegexConcat (RegexStar (RegexUnion (Str2Reg "aa") (Str2Reg "b"))) (RegexConcat (RegexUnion (RegexUnion (Str2Reg "77") (Str2Reg "888")) (RegexStar (Str2Reg "9"))) (RegexConcat (RegexPlus (RegexPlus (Str2Reg "666"))) (RegexConcat (RegexStar (RegexPlus (Str2Reg "555"))) (RegexConcat (RegexUnion (RegexUnion (Str2Reg "111") (Str2Reg "22")) (RegexUnion (Str2Reg "333") (Str2Reg "444"))) (RegexStar (RegexStar (Str2Reg "0"))))))))))))))
(assert (RegexIn var0 (RegexConcat (RegexPlus (RegexPlus (Str2Reg "j"))) (RegexConcat (RegexPlus (RegexStar (Str2Reg "i"))) (RegexConcat (RegexUnion (RegexUnion (Str2Reg "eee") (Str2Reg "f")) (RegexUnion (Str2Reg "ggg") (Str2Reg "hh"))) (RegexConcat (RegexPlus (RegexPlus (Str2Reg "d"))) (RegexConcat (RegexUnion (RegexPlus (Str2Reg "aaa")) (RegexUnion (Str2Reg "bbb") (Str2Reg "cc"))) (RegexConcat (RegexPlus (RegexUnion (Str2Reg "8") (Str2Reg "9"))) (RegexConcat (RegexUnion (RegexStar (Str2Reg "666")) (RegexPlus (Str2Reg "7"))) (RegexConcat (RegexUnion (RegexPlus (Str2Reg "4")) (RegexStar (Str2Reg "555"))) (RegexConcat (RegexStar (RegexUnion (Str2Reg "2") (Str2Reg "3"))) (RegexStar (RegexUnion (Str2Reg "000") (Str2Reg "1"))))))))))))))
(assert (RegexIn var0 (RegexConcat (RegexPlus (RegexPlus (Str2Reg "jj"))) (RegexConcat (RegexUnion (RegexStar (Str2Reg "ggg")) (RegexUnion (Str2Reg "hh") (Str2Reg "iii"))) (RegexConcat (RegexPlus (RegexUnion (Str2Reg "e") (Str2Reg "ff"))) (RegexConcat (RegexStar (RegexStar (Str2Reg "ddd"))) (RegexConcat (RegexUnion (RegexStar (Str2Reg "aa")) (RegexUnion (Str2Reg "bb") (Str2Reg "ccc"))) (RegexConcat (RegexPlus (RegexUnion (Str2Reg "888") (Str2Reg "999"))) (RegexConcat (RegexPlus (RegexUnion (Str2Reg "666") (Str2Reg "7"))) (RegexConcat (RegexPlus (RegexPlus (Str2Reg "5"))) (RegexConcat (RegexUnion (RegexPlus (Str2Reg "333")) (RegexPlus (Str2Reg "44"))) (RegexUnion (RegexUnion (Str2Reg "0") (Str2Reg "111")) (RegexPlus (Str2Reg "2"))))))))))))))
(check-sat)